<number of tasks>
50

<cycle time>
1000

<order strength>
0.896


<task times>
1 253
2 130
3 70
4 20
5 197
6 143
7 128
8 112
9 170
10 149
11 197
12 172
13 38
14 63
15 310
16 103
17 25
18 211
19 64
20 267
21 25
22 77
23 44
24 185
25 167
26 91
27 99
28 102
29 213
30 73
31 187
32 278
33 51
34 27
35 57
36 143
37 75
38 134
39 308
40 66
41 229
42 175
43 166
44 61
45 90
46 128
47 168
48 85
49 128
50 51

<precedence relations>
1,4
1,5
1,6
2,4
2,5
2,6
3,4
3,5
3,6
4,7
4,8
4,9
5,7
5,8
5,9
6,7
6,8
6,9
7,10
7,11
8,10
8,11
9,10
9,11
10,12
10,13
10,14
11,12
11,13
11,14
12,15
12,16
12,17
12,18
13,15
13,16
13,17
13,18
14,15
14,16
14,17
14,18
15,19
16,19
17,19
18,19
19,20
19,21
20,22
20,23
20,24
20,25
21,22
21,23
21,24
21,25
22,26
22,27
22,28
22,29
23,26
23,28
23,32
24,26
24,27
24,29
25,26
25,27
25,28
25,29
26,41
26,43
26,44
27,32
27,39
28,30
29,31
30,33
31,32
31,34
32,36
33,35
33,36
34,35
35,37
36,38
36,41
36,42
36,44
37,39
38,43
38,46
39,40
39,41
39,42
40,43
40,44
40,45
42,45
42,46
43,47
43,48
43,49
43,50
45,47
46,48

<end>
